LAMMPS (29 Aug 2024 - Update 1)
OMP_NUM_THREADS environment is not set. Defaulting to 1 thread. (src/comm.cpp:98)
  using 1 OpenMP thread(s) per MPI task

# System: Electrolyte with T* = 0.5, matching physical Bjerrum length/ion diameter ratio

#Define Pi and normalization constant
variable M_PI          equal 3.1415926535
variable e             equal (4*${M_PI}*55.26349406*25.2*2.16*0.001)^(-1/2)
variable e             equal (4*3.1415926535*55.26349406*25.2*2.16*0.001)^(-1/2)

# Physical parameters
# T* = sigma/l_bjerrum is approx 0.5 (matches water with l_bjerrum = 0.72 nm, sigma â‰ˆ 0.3 #nm)
variable t             equal 1.0       # 1.0 corresponds to T = 293K, kBT = 25,2 meV, physcial temperature of the system
variable e_lj          equal 10*$t      #was 40, the variable that dictates the well of the LJ potential, the strength of the WCA
variable e_lj          equal 10*1      
variable dt            equal 0.0005
variable Z             equal 1
variable Ts            equal 0.5       # Reduced temperature T*
variable rhos          equal 0.4      # Reduced density

# RDF specific variables
variable r_max        equal 5.0
variable bins_ps      equal 32
variable bins         equal ${r_max}*${bins_ps}
variable bins         equal 5*${bins_ps}
variable bins         equal 5*32

#Number of ions per group
variable N_ion        equal 200

#diameter of the ions (sigma) and the cut_off length for the WCA potential (minimum of #LJ)
variable sigma_ii      equal 1.0       # Ion diameter in reduced units
variable c_ii          equal 2^(1/6)*${sigma_ii}
variable c_ii          equal 2^(1/6)*1

#ion mass
variable m_i           equal 1.0     # 0.36 nm

#other variables: bjerrum length and the dielectric constant
variable l_bjerrum     equal ${sigma_ii}/${Ts}
variable l_bjerrum     equal 1/${Ts}
variable l_bjerrum     equal 1/0.5
variable epsilon       equal ${Ts}/(${sigma_ii}*${t})
variable epsilon       equal 0.5/(${sigma_ii}*${t})
variable epsilon       equal 0.5/(1*${t})
variable epsilon       equal 0.5/(1*1)

#Box size
variable L_box         equal (2*${N_ion}/${rhos})^(1/3)*${sigma_ii}
variable L_box         equal (2*200/${rhos})^(1/3)*${sigma_ii}
variable L_box         equal (2*200/0.4)^(1/3)*${sigma_ii}
variable L_box         equal (2*200/0.4)^(1/3)*1

#Coulomb interaction cutoff
variable c_coul        equal 2.5

# Units, atom style, boundary conditions, dielectric constant
units                 lj
atom_style            full
boundary              p p p
dielectric            ${epsilon}
dielectric            0.5

#PARTICLE CREATION
region box            block 0 ${L_box} 0 ${L_box} 0.0 ${L_box}
region box            block 0 10 0 ${L_box} 0.0 ${L_box}
region box            block 0 10 0 10 0.0 ${L_box}
region box            block 0 10 0 10 0.0 10
create_box            2 box
Created orthogonal box = (0 0 0) to (10 10 10)
  1 by 1 by 1 MPI processor grid
mass *                ${m_i}
mass *                1

create_atoms          1 random ${N_ion} 4248389 NULL
create_atoms          1 random 200 4248389 NULL
Created 200 atoms
  using lattice units in orthogonal box = (0 0 0) to (10 10 10)
  create_atoms CPU = 0.002 seconds
create_atoms          2 random ${N_ion} 6238894 NULL
create_atoms          2 random 200 6238894 NULL
Created 200 atoms
  using lattice units in orthogonal box = (0 0 0) to (10 10 10)
  create_atoms CPU = 0.000 seconds

set type 1 charge $(v_Z)
set type 1 charge 1
Setting atom values ...
  200 settings made for charge
set type 2 charge -$(v_Z)
set type 2 charge -1
Setting atom values ...
  200 settings made for charge

group cation type 1
200 atoms in group cation
group anion type 2
200 atoms in group anion

reset_timestep 0

# WCA and coulomb potential
pair_style            lj/cut/coul/long ${c_coul}
pair_style            lj/cut/coul/long 2.5
pair_coeff            * * ${e_lj} ${sigma_ii} ${c_ii}
pair_coeff            * * 10 ${sigma_ii} ${c_ii}
pair_coeff            * * 10 1 ${c_ii}
pair_coeff            * * 10 1 1.12246204830937

#WCA approx
pair_modify shift yes

#Long range of Coulomb potential
kspace_style pppm 1.0e-4

# Random seed
variable seed1         equal 837603

#Give all particles random initial velocity
velocity all create 1.0 ${seed1}
velocity all create 1.0 837603

# neighbor
neighbor              0.3 bin
neigh_modify          every 1 delay 1 check yes one 500 page 5000

# minimize
minimize 1.0e-6 1.0e-8 500 5000
Switching to 'neigh_modify every 1 delay 0 check yes' setting during minimization
PPPM initialization ...
  using 12-bit tables for long-range coulomb (src/kspace.cpp:342)
  G vector (1/distance) = 1.259161
  grid = 40 40 40
  stencil order = 5
  estimated absolute RMS force accuracy = 0.00011100545
  estimated relative force accuracy = 0.00011100545
  using double precision KISS FFT
  3d grid and FFT values/proc = 103823 64000
Generated 0 of 1 mixed pair_coeff terms from geometric mixing rule
Neighbor list info ...
  update: every = 1 steps, delay = 0 steps, check = yes
  max neighbors/atom: 500, page size: 5000
  master list distance cutoff = 2.8
  ghost atom cutoff = 2.8
  binsize = 1.4, bins = 8 8 8
  1 neighbor lists, perpetual/occasional/extra = 1 0 0
  (1) pair lj/cut/coul/long, perpetual
      attributes: half, newton on
      pair build: half/bin/newton
      stencil: half/bin/3d
      bin: standard
Per MPI rank memory allocation (min/avg/max) = 16.65 | 16.65 | 16.65 Mbytes
   Step          Temp          E_pair         E_mol          TotEng         Press     
         0   1              1.0003518e+14  0              1.0003518e+14  1.6005629e+14
       282   1             -1.3411553      0              0.15509473     0.37120876   
Loop time of 101.07 on 1 procs for 282 steps with 400 atoms

84.7% CPU use with 1 MPI tasks x 1 OpenMP threads

Minimization stats:
  Stopping criterion = energy tolerance
  Energy initial, next-to-last, final = 
       100035182372546  -1.34115499474852  -1.34115527449149
  Force two-norm initial, final = 1.2075956e+19 18.553503
  Force max component initial, final = 7.7780118e+18 4.7027788
  Final line search alpha, max atom move = 0.015225241 0.07160094
  Iterations, force evaluations = 282 1038

MPI task timing breakdown:
Section |  min time  |  avg time  |  max time  |%varavg| %total
---------------------------------------------------------------
Pair    | 1.514      | 1.514      | 1.514      |   0.0 |  1.50
Bond    | 0.0010711  | 0.0010711  | 0.0010711  |   0.0 |  0.00
Kspace  | 99.105     | 99.105     | 99.105     |   0.0 | 98.06
Neigh   | 0.23849    | 0.23849    | 0.23849    |   0.0 |  0.24
Comm    | 0.085227   | 0.085227   | 0.085227   |   0.0 |  0.08
Output  | 0          | 0          | 0          |   0.0 |  0.00
Modify  | 0          | 0          | 0          |   0.0 |  0.00
Other   |            | 0.126      |            |       |  0.12

Nlocal:            400 ave         400 max         400 min
Histogram: 1 0 0 0 0 0 0 0 0 0
Nghost:           1112 ave        1112 max        1112 min
Histogram: 1 0 0 0 0 0 0 0 0 0
Neighs:           7208 ave        7208 max        7208 min
Histogram: 1 0 0 0 0 0 0 0 0 0

Total # of neighbors = 7208
Ave neighs/atom = 18.02
Ave special neighs/atom = 0
Neighbor list builds = 115
Dangerous builds = 0

reset_timestep 0

# fixes, sets up NVT ensemble
fix mynvt all nvt temp 1.0 1.0 $(100*dt) tchain 30
fix mynvt all nvt temp 1.0 1.0 0.5 tchain 30

timestep              ${dt}
timestep              0.0005

# Compute RDF
compute rdf all rdf ${bins} 1 1 1 2 2 2 # check g(++), g(--), g(+-)
compute rdf all rdf 160 1 1 1 2 2 2 
fix rdf_avg all ave/time 100 10 1000 c_rdf[*] file rdf_T${Ts}_rho${rhos}.avg mode vector
fix rdf_avg all ave/time 100 10 1000 c_rdf[*] file rdf_T0.5_rho${rhos}.avg mode vector
fix rdf_avg all ave/time 100 10 1000 c_rdf[*] file rdf_T0.5_rho0.4.avg mode vector

#computes
compute pe all pe/atom

#thermodynamic quantities, outputs every 1000 steps with parameter monitoring
thermo               500
thermo_style         custom step temp etotal pe ke press atoms
thermo_modify norm yes

# dump pictures and movies
dump                 1 all custom 250 configuration_T${Ts}_rho${rhos}.dump id type x y z vx vy vz fx fy fz c_pe
dump                 1 all custom 250 configuration_T0.5_rho${rhos}.dump id type x y z vx vy vz fx fy fz c_pe
dump                 1 all custom 250 configuration_T0.5_rho0.4.dump id type x y z vx vy vz fx fy fz c_pe
dump_modify          1 format line "%d %d %.6f %.6f %.6f %.6f %.6f %.6f %.6f %.6f %.6f %.6f"
dump_modify          1 sort id

run 10000
PPPM initialization ...
  using 12-bit tables for long-range coulomb (src/kspace.cpp:342)
  G vector (1/distance) = 1.259161
  grid = 40 40 40
  stencil order = 5
  estimated absolute RMS force accuracy = 0.00011100545
  estimated relative force accuracy = 0.00011100545
  using double precision KISS FFT
  3d grid and FFT values/proc = 103823 64000
Generated 0 of 1 mixed pair_coeff terms from geometric mixing rule
Neighbor list info ...
  update: every = 1 steps, delay = 1 steps, check = yes
  max neighbors/atom: 500, page size: 5000
  master list distance cutoff = 2.8
  ghost atom cutoff = 2.8
  binsize = 1.4, bins = 8 8 8
  2 neighbor lists, perpetual/occasional/extra = 1 1 0
  (1) pair lj/cut/coul/long, perpetual
      attributes: half, newton on
      pair build: half/bin/newton
      stencil: half/bin/3d
      bin: standard
  (2) compute rdf, occasional, copy from (1)
      attributes: half, newton on
      pair build: copy
      stencil: none
      bin: none
Per MPI rank memory allocation (min/avg/max) = 20.94 | 20.94 | 20.94 Mbytes
   Step          Temp          TotEng         PotEng         KinEng         Press         Atoms   
         0   1              0.15509473    -1.3411553      1.49625        0.37120876           400 
       500   0.84643717     0.19855617    -1.0679254      1.2664816      0.97520379           400 
      1000   0.83940638     0.29559512    -0.96036667     1.2559618      0.83014906           400 
      1500   0.84936575     0.37810262    -0.89276089     1.2708635      0.93835891           400 
      2000   0.90447851     0.46915708    -0.88416889     1.353326       1.0333456            400 
      2500   0.94063086     0.54244389    -0.86497503     1.4074189      1.1097597            400 
      3000   0.98269033     0.60662792    -0.86372249     1.4703504      1.0491154            400 
      3500   1.0104491      0.65661345    -0.85527104     1.5118845      1.0872818            400 
      4000   1.0346332      0.6897409     -0.85832896     1.5480699      1.0739795            400 
      4500   1.0264328      0.70803354    -0.82776648     1.5358         1.2091371            400 
      5000   1.0244361      0.70598361    -0.82682898     1.5328126      1.29651              400 
      5500   1.0145254      0.67946717    -0.83851644     1.5179836      1.1518954            400 
      6000   0.98243973     0.626651      -0.84332444     1.4699754      1.1923522            400 
      6500   0.90161975     0.5232328     -0.82581576     1.3490486      1.1603682            400 
      7000   0.88123402     0.4455353     -0.87301109     1.3185464      1.0637395            400 
      7500   0.89877026     0.4609476     -0.88383741     1.344785       0.97292259           400 
      8000   0.92621087     0.51427102    -0.87157199     1.385843       1.1909078            400 
      8500   0.99196204     0.58119389    -0.90302931     1.4842232      1.0322063            400 
      9000   0.98643764     0.63245324    -0.84350408     1.4759573      1.2451259            400 
      9500   0.98533311     0.67118573    -0.80311894     1.4743047      1.2304268            400 
     10000   1.0054214      0.70110202    -0.80325973     1.5043617      1.1096682            400 
Loop time of 576.142 on 1 procs for 10000 steps with 400 atoms

Performance: 749.816 tau/day, 17.357 timesteps/s, 6.943 katom-step/s
92.5% CPU use with 1 MPI tasks x 1 OpenMP threads

MPI task timing breakdown:
Section |  min time  |  avg time  |  max time  |%varavg| %total
---------------------------------------------------------------
Pair    | 7.0975     | 7.0975     | 7.0975     |   0.0 |  1.23
Bond    | 0.0052969  | 0.0052969  | 0.0052969  |   0.0 |  0.00
Kspace  | 567.09     | 567.09     | 567.09     |   0.0 | 98.43
Neigh   | 0.12878    | 0.12878    | 0.12878    |   0.0 |  0.02
Comm    | 0.42384    | 0.42384    | 0.42384    |   0.0 |  0.07
Output  | 0.607      | 0.607      | 0.607      |   0.0 |  0.11
Modify  | 0.61616    | 0.61616    | 0.61616    |   0.0 |  0.11
Other   |            | 0.1684     |            |       |  0.03

Nlocal:            400 ave         400 max         400 min
Histogram: 1 0 0 0 0 0 0 0 0 0
Nghost:           1079 ave        1079 max        1079 min
Histogram: 1 0 0 0 0 0 0 0 0 0
Neighs:           7204 ave        7204 max        7204 min
Histogram: 1 0 0 0 0 0 0 0 0 0

Total # of neighbors = 7204
Ave neighs/atom = 18.01
Ave special neighs/atom = 0
Neighbor list builds = 123
Dangerous builds = 0

write_restart restart_T${Ts}_rho${rhos}.restart
write_restart restart_T0.5_rho${rhos}.restart
write_restart restart_T0.5_rho0.4.restart
System init for write_restart ...
PPPM initialization ...
  using 12-bit tables for long-range coulomb (src/kspace.cpp:342)
  G vector (1/distance) = 1.259161
  grid = 40 40 40
  stencil order = 5
  estimated absolute RMS force accuracy = 0.00011100545
  estimated relative force accuracy = 0.00011100545
  using double precision KISS FFT
  3d grid and FFT values/proc = 103823 64000
Generated 0 of 1 mixed pair_coeff terms from geometric mixing rule
Total wall time: 0:11:12

